Optimize a model with 7 rows, 12 columns and 24 nonzeros
Variable types: 0 continuous, 12 integer (0 binary)
Coefficient statistics:
  Matrix range     [1e+00, 1e+00]
  Objective range  [5e+00, 2e+01]
  Bounds range     [0e+00, 0e+00]
  RHS range        [2e+01, 5e+01]
Found heuristic solution: objective 1355.0000000
Presolve time: 0.00s
Presolved: 7 rows, 12 columns, 24 nonzeros
Variable types: 0 continuous, 12 integer (0 binary)

Root relaxation: objective 1.020000e+03, 7 iterations, 0.00 seconds

    Nodes    |    Current Node    |     Objective Bounds      |     Work
 Expl Unexpl |  Obj  Depth IntInf | Incumbent    BestBd   Gap | It/Node Time

*    0     0               0    1020.0000000 1020.00000  0.00%     -    0s

Explored 0 nodes (7 simplex iterations) in 0.05 seconds
Thread count was 4 (of 4 available processors)

Solution count 2: 1020 1355 

Optimal solution found (tolerance 1.00e-04)
Best objective 1.020000000000e+03, best bound 1.020000000000e+03, gap 0.0000%
Optimize a model with 7 rows, 12 columns and 24 nonzeros
Variable types: 0 continuous, 12 integer (12 binary)
Coefficient statistics:
  Matrix range     [1e+00, 1e+00]
  Objective range  [2e+00, 1e+01]
  Bounds range     [1e+00, 1e+00]
  RHS range        [1e+00, 1e+00]
Found heuristic solution: objective 11.0000000
Presolve time: 0.01s
Presolved: 7 rows, 12 columns, 24 nonzeros
Variable types: 0 continuous, 12 integer (12 binary)

Root relaxation: objective 2.700000e+01, 0 iterations, 0.00 seconds

    Nodes    |    Current Node    |     Objective Bounds      |     Work
 Expl Unexpl |  Obj  Depth IntInf | Incumbent    BestBd   Gap | It/Node Time

*    0     0               0      27.0000000   27.00000  0.00%     -    0s

Explored 0 nodes (0 simplex iterations) in 0.08 seconds
Thread count was 4 (of 4 available processors)

Solution count 2: 27 11 

Optimal solution found (tolerance 1.00e-04)
Best objective 2.700000000000e+01, best bound 2.700000000000e+01, gap 0.0000%
Optimize a model with 7 rows, 12 columns and 24 nonzeros
Variable types: 0 continuous, 12 integer (12 binary)
Coefficient statistics:
  Matrix range     [1e+00, 1e+00]
  Objective range  [2e+00, 1e+01]
  Bounds range     [1e+00, 1e+00]
  RHS range        [1e+00, 1e+00]
Found heuristic solution: objective 11.0000000
Presolve time: 0.00s
Presolved: 7 rows, 12 columns, 24 nonzeros
Variable types: 0 continuous, 12 integer (12 binary)

Root relaxation: objective 2.700000e+01, 0 iterations, 0.00 seconds

    Nodes    |    Current Node    |     Objective Bounds      |     Work
 Expl Unexpl |  Obj  Depth IntInf | Incumbent    BestBd   Gap | It/Node Time

*    0     0               0      27.0000000   27.00000  0.00%     -    0s

Explored 0 nodes (0 simplex iterations) in 0.08 seconds
Thread count was 4 (of 4 available processors)

Solution count 2: 27 11 

Optimal solution found (tolerance 1.00e-04)
Best objective 2.700000000000e+01, best bound 2.700000000000e+01, gap 0.0000%
Optimize a model with 7 rows, 12 columns and 24 nonzeros
Variable types: 0 continuous, 12 integer (0 binary)
Coefficient statistics:
  Matrix range     [1e+00, 1e+00]
  Objective range  [5e+00, 2e+01]
  Bounds range     [0e+00, 0e+00]
  RHS range        [2e+01, 5e+01]
Found heuristic solution: objective 1355.0000000
Presolve time: 0.00s
Presolved: 7 rows, 12 columns, 24 nonzeros
Variable types: 0 continuous, 12 integer (0 binary)

Root relaxation: objective 1.020000e+03, 7 iterations, 0.00 seconds

    Nodes    |    Current Node    |     Objective Bounds      |     Work
 Expl Unexpl |  Obj  Depth IntInf | Incumbent    BestBd   Gap | It/Node Time

*    0     0               0    1020.0000000 1020.00000  0.00%     -    0s

Explored 0 nodes (7 simplex iterations) in 0.04 seconds
Thread count was 4 (of 4 available processors)

Solution count 2: 1020 1355 

Optimal solution found (tolerance 1.00e-04)
Best objective 1.020000000000e+03, best bound 1.020000000000e+03, gap 0.0000%

Gurobi 8.1.1 (win64, Python) logging started 01/02/20 14:27:55

Academic license - for non-commercial use only
Optimize a model with 7 rows, 12 columns and 24 nonzeros
Variable types: 0 continuous, 12 integer (0 binary)
Coefficient statistics:
  Matrix range     [1e+00, 1e+00]
  Objective range  [5e+00, 2e+01]
  Bounds range     [0e+00, 0e+00]
  RHS range        [2e+01, 5e+01]
Found heuristic solution: objective 1355.0000000
Presolve time: 0.00s
Presolved: 7 rows, 12 columns, 24 nonzeros
Variable types: 0 continuous, 12 integer (0 binary)

Root relaxation: objective 1.020000e+03, 7 iterations, 0.00 seconds

    Nodes    |    Current Node    |     Objective Bounds      |     Work
 Expl Unexpl |  Obj  Depth IntInf | Incumbent    BestBd   Gap | It/Node Time

*    0     0               0    1020.0000000 1020.00000  0.00%     -    0s

Explored 0 nodes (7 simplex iterations) in 0.19 seconds
Thread count was 4 (of 4 available processors)

Solution count 2: 1020 1355 

Optimal solution found (tolerance 1.00e-04)
Best objective 1.020000000000e+03, best bound 1.020000000000e+03, gap 0.0000%

Gurobi 8.1.1 (win64, Python) logging started 01/02/20 15:10:22

Academic license - for non-commercial use only

Gurobi 8.1.1 (win64, Python) logging started 01/02/20 23:46:01

Academic license - for non-commercial use only
